! PW6B95 def2-TZVP GCP(DFT/TZ) ECP{def2-TZVP} Grid7 MORead
%pal nprocs 2 end
%method
 RunTyp Gradient
 end
%maxcore 2000
%moinp "previous.gbw"
*xyz 0 1
Pb 0.296413 0.355167 0.532067 
Cl 2.643469 0.536218 -0.558202 
Cl -0.219838 2.910094 0.361344 
Cl 1.220862 0.622332 2.950591 
Cs 3.133153 3.756470 2.722008 
*
