! PW6B95 def2-TZVP GCP(DFT/TZ) ECP{def2-TZVP} Grid7 MORead
%pal nprocs 2 end
%method
 RunTyp Gradient
 end
%maxcore 2000
%moinp "previous.gbw"
*xyz -1 1
Pb 1.361952 0.760627 0.779324 
Cl -0.890403 -0.266062 0.165377 
Cl 0.895595 1.189151 3.328832 
Cl 1.211279 3.048344 -0.144333 
*
